(set-logic HORN)
(declare-fun F__0 ((_ BitVec 1) (_ BitVec 16) (_ BitVec 32)) Bool)
(declare-fun F__1 ((_ BitVec 1) (_ BitVec 16) (_ BitVec 32)) Bool)
(declare-fun F__2 ((_ BitVec 1) (_ BitVec 16) (_ BitVec 32)) Bool)
(declare-fun F__3 ((_ BitVec 1) (_ BitVec 16) (_ BitVec 32)) Bool)
(declare-fun F__4 ((_ BitVec 1) (_ BitVec 16) (_ BitVec 32)) Bool)
(declare-fun F__5 ((_ BitVec 1) (_ BitVec 16) (_ BitVec 32)) Bool)
(declare-fun F__6 ((_ BitVec 1) (_ BitVec 16) (_ BitVec 32)) Bool)
(declare-fun F__7 ((_ BitVec 1) (_ BitVec 16) (_ BitVec 32)) Bool)
(declare-fun F__8 ((_ BitVec 1) (_ BitVec 16) (_ BitVec 32)) Bool)
(declare-fun F__9 ((_ BitVec 1) (_ BitVec 16) (_ BitVec 32)) Bool)
(declare-fun F__10 ((_ BitVec 1) (_ BitVec 16) (_ BitVec 32)) Bool)
(declare-fun F__11 ((_ BitVec 1) (_ BitVec 16) (_ BitVec 32)) Bool)
(declare-fun F__12 ((_ BitVec 1) (_ BitVec 16) (_ BitVec 32)) Bool)
(declare-fun F__13 ((_ BitVec 1) (_ BitVec 16) (_ BitVec 32)) Bool)
(declare-fun F__14 ((_ BitVec 1) (_ BitVec 16) (_ BitVec 32)) Bool)
(declare-fun F__15 ((_ BitVec 1) (_ BitVec 16) (_ BitVec 32)) Bool)
(declare-fun F__16 ((_ BitVec 1) (_ BitVec 16) (_ BitVec 32)) Bool)
(declare-fun F__17 ((_ BitVec 1) (_ BitVec 16) (_ BitVec 32)) Bool)
(declare-fun F__18 ((_ BitVec 1) (_ BitVec 16) (_ BitVec 32)) Bool)
(declare-fun F__19 ((_ BitVec 1) (_ BitVec 16) (_ BitVec 32)) Bool)
(declare-fun F__20 ((_ BitVec 1) (_ BitVec 16) (_ BitVec 32)) Bool)
(declare-fun F_ERR ((_ BitVec 1) (_ BitVec 16) (_ BitVec 32)) Bool)
(assert (forall ((tmp (_ BitVec 1)) (tmp_0 (_ BitVec 16)) (tmp_1 (_ BitVec 32)))
        (=> (= tmp_1 #x00000000) (F__0 tmp #x0000 tmp_1))))
(assert (forall ((tmp_2 (_ BitVec 1)) (tmp_3 (_ BitVec 16)) (tmp_4 (_ BitVec 32)))
        (=> (and (F__0 tmp_2 tmp_3 tmp_4) (distinct tmp_2 #b1)) (F__1 tmp_2 (bvadd tmp_3 #x0001) (bvadd tmp_4 #x00000001)))))
(assert (forall ((tmp_5 (_ BitVec 1)) (tmp_6 (_ BitVec 16)) (tmp_7 (_ BitVec 32)))
        (=> (and (F__0 tmp_5 tmp_6 tmp_7) (= tmp_5 #b1)) (F_ERR tmp_5 tmp_6 (bvadd tmp_7 #x00000001)))))
(assert (forall ((tmp_8 (_ BitVec 1)) (tmp_9 (_ BitVec 16)) (tmp_10 (_ BitVec 32)))
        (=> (and (F__1 tmp_8 tmp_9 tmp_10) (distinct tmp_8 #b1)) (F__2 tmp_8 (bvadd tmp_9 #x0001) (bvadd tmp_10 #x00000001)))))
(assert (forall ((tmp_11 (_ BitVec 1)) (tmp_12 (_ BitVec 16)) (tmp_13 (_ BitVec 32)))
        (=> (and (F__1 tmp_11 tmp_12 tmp_13) (= tmp_11 #b1)) (F_ERR tmp_11 tmp_12 (bvadd tmp_13 #x00000001)))))
(assert (forall ((tmp_14 (_ BitVec 1)) (tmp_15 (_ BitVec 16)) (tmp_16 (_ BitVec 32)))
        (=> (and (F__2 tmp_14 tmp_15 tmp_16) (distinct tmp_14 #b1)) (F__3 tmp_14 (bvadd tmp_15 #x0001) (bvadd tmp_16 #x00000001)))))
(assert (forall ((tmp_17 (_ BitVec 1)) (tmp_18 (_ BitVec 16)) (tmp_19 (_ BitVec 32)))
        (=> (and (F__2 tmp_17 tmp_18 tmp_19) (= tmp_17 #b1)) (F_ERR tmp_17 tmp_18 (bvadd tmp_19 #x00000001)))))
(assert (forall ((tmp_20 (_ BitVec 1)) (tmp_21 (_ BitVec 16)) (tmp_22 (_ BitVec 32)))
        (=> (and (F__3 tmp_20 tmp_21 tmp_22) (distinct tmp_20 #b1)) (F__4 tmp_20 (bvadd tmp_21 #x0001) (bvadd tmp_22 #x00000001)))))
(assert (forall ((tmp_23 (_ BitVec 1)) (tmp_24 (_ BitVec 16)) (tmp_25 (_ BitVec 32)))
        (=> (and (F__3 tmp_23 tmp_24 tmp_25) (= tmp_23 #b1)) (F_ERR tmp_23 tmp_24 (bvadd tmp_25 #x00000001)))))
(assert (forall ((tmp_26 (_ BitVec 1)) (tmp_27 (_ BitVec 16)) (tmp_28 (_ BitVec 32)))
        (=> (and (F__4 tmp_26 tmp_27 tmp_28) (distinct tmp_26 #b1)) (F__5 tmp_26 (bvadd tmp_27 #x0001) (bvadd tmp_28 #x00000001)))))
(assert (forall ((tmp_29 (_ BitVec 1)) (tmp_30 (_ BitVec 16)) (tmp_31 (_ BitVec 32)))
        (=> (and (F__4 tmp_29 tmp_30 tmp_31) (= tmp_29 #b1)) (F_ERR tmp_29 tmp_30 (bvadd tmp_31 #x00000001)))))
(assert (forall ((tmp_32 (_ BitVec 1)) (tmp_33 (_ BitVec 16)) (tmp_34 (_ BitVec 32)))
        (=> (and (F__5 tmp_32 tmp_33 tmp_34) (distinct tmp_32 #b1)) (F__6 tmp_32 (bvadd tmp_33 #x0001) (bvadd tmp_34 #x00000001)))))
(assert (forall ((tmp_35 (_ BitVec 1)) (tmp_36 (_ BitVec 16)) (tmp_37 (_ BitVec 32)))
        (=> (and (F__5 tmp_35 tmp_36 tmp_37) (= tmp_35 #b1)) (F_ERR tmp_35 tmp_36 (bvadd tmp_37 #x00000001)))))
(assert (forall ((tmp_38 (_ BitVec 1)) (tmp_39 (_ BitVec 16)) (tmp_40 (_ BitVec 32)))
        (=> (and (F__6 tmp_38 tmp_39 tmp_40) (distinct tmp_38 #b1)) (F__7 tmp_38 (bvadd tmp_39 #x0001) (bvadd tmp_40 #x00000001)))))
(assert (forall ((tmp_41 (_ BitVec 1)) (tmp_42 (_ BitVec 16)) (tmp_43 (_ BitVec 32)))
        (=> (and (F__6 tmp_41 tmp_42 tmp_43) (= tmp_41 #b1)) (F_ERR tmp_41 tmp_42 (bvadd tmp_43 #x00000001)))))
(assert (forall ((tmp_44 (_ BitVec 1)) (tmp_45 (_ BitVec 16)) (tmp_46 (_ BitVec 32)))
        (=> (and (F__7 tmp_44 tmp_45 tmp_46) (distinct tmp_44 #b1)) (F__8 tmp_44 (bvadd tmp_45 #x0001) (bvadd tmp_46 #x00000001)))))
(assert (forall ((tmp_47 (_ BitVec 1)) (tmp_48 (_ BitVec 16)) (tmp_49 (_ BitVec 32)))
        (=> (and (F__7 tmp_47 tmp_48 tmp_49) (= tmp_47 #b1)) (F_ERR tmp_47 tmp_48 (bvadd tmp_49 #x00000001)))))
(assert (forall ((tmp_50 (_ BitVec 1)) (tmp_51 (_ BitVec 16)) (tmp_52 (_ BitVec 32)))
        (=> (and (F__8 tmp_50 tmp_51 tmp_52) (distinct tmp_50 #b1)) (F__9 tmp_50 (bvadd tmp_51 #x0001) (bvadd tmp_52 #x00000001)))))
(assert (forall ((tmp_53 (_ BitVec 1)) (tmp_54 (_ BitVec 16)) (tmp_55 (_ BitVec 32)))
        (=> (and (F__8 tmp_53 tmp_54 tmp_55) (= tmp_53 #b1)) (F_ERR tmp_53 tmp_54 (bvadd tmp_55 #x00000001)))))
(assert (forall ((tmp_56 (_ BitVec 1)) (tmp_57 (_ BitVec 16)) (tmp_58 (_ BitVec 32)))
        (=> (and (F__9 tmp_56 tmp_57 tmp_58) (distinct tmp_56 #b1)) (F__10 tmp_56 (bvadd tmp_57 #x0001) (bvadd tmp_58 #x00000001)))))
(assert (forall ((tmp_59 (_ BitVec 1)) (tmp_60 (_ BitVec 16)) (tmp_61 (_ BitVec 32)))
        (=> (and (F__9 tmp_59 tmp_60 tmp_61) (= tmp_59 #b1)) (F_ERR tmp_59 tmp_60 (bvadd tmp_61 #x00000001)))))
(assert (forall ((tmp_62 (_ BitVec 1)) (tmp_63 (_ BitVec 16)) (tmp_64 (_ BitVec 32)))
        (=> (and (F__10 tmp_62 tmp_63 tmp_64) (distinct tmp_62 #b1)) (F__11 tmp_62 (bvadd tmp_63 #x0001) (bvadd tmp_64 #x00000001)))))
(assert (forall ((tmp_65 (_ BitVec 1)) (tmp_66 (_ BitVec 16)) (tmp_67 (_ BitVec 32)))
        (=> (and (F__10 tmp_65 tmp_66 tmp_67) (= tmp_65 #b1)) (F_ERR tmp_65 tmp_66 (bvadd tmp_67 #x00000001)))))
(assert (forall ((tmp_68 (_ BitVec 1)) (tmp_69 (_ BitVec 16)) (tmp_70 (_ BitVec 32)))
        (=> (and (F__11 tmp_68 tmp_69 tmp_70) (distinct tmp_68 #b1)) (F__12 tmp_68 (bvadd tmp_69 #x0001) (bvadd tmp_70 #x00000001)))))
(assert (forall ((tmp_71 (_ BitVec 1)) (tmp_72 (_ BitVec 16)) (tmp_73 (_ BitVec 32)))
        (=> (and (F__11 tmp_71 tmp_72 tmp_73) (= tmp_71 #b1)) (F_ERR tmp_71 tmp_72 (bvadd tmp_73 #x00000001)))))
(assert (forall ((tmp_74 (_ BitVec 1)) (tmp_75 (_ BitVec 16)) (tmp_76 (_ BitVec 32)))
        (=> (and (F__12 tmp_74 tmp_75 tmp_76) (distinct tmp_74 #b1)) (F__13 tmp_74 (bvadd tmp_75 #x0001) (bvadd tmp_76 #x00000001)))))
(assert (forall ((tmp_77 (_ BitVec 1)) (tmp_78 (_ BitVec 16)) (tmp_79 (_ BitVec 32)))
        (=> (and (F__12 tmp_77 tmp_78 tmp_79) (= tmp_77 #b1)) (F_ERR tmp_77 tmp_78 (bvadd tmp_79 #x00000001)))))
(assert (forall ((tmp_80 (_ BitVec 1)) (tmp_81 (_ BitVec 16)) (tmp_82 (_ BitVec 32)))
        (=> (and (F__13 tmp_80 tmp_81 tmp_82) (distinct tmp_80 #b1)) (F__14 tmp_80 (bvadd tmp_81 #x0001) (bvadd tmp_82 #x00000001)))))
(assert (forall ((tmp_83 (_ BitVec 1)) (tmp_84 (_ BitVec 16)) (tmp_85 (_ BitVec 32)))
        (=> (and (F__13 tmp_83 tmp_84 tmp_85) (= tmp_83 #b1)) (F_ERR tmp_83 tmp_84 (bvadd tmp_85 #x00000001)))))
(assert (forall ((tmp_86 (_ BitVec 1)) (tmp_87 (_ BitVec 16)) (tmp_88 (_ BitVec 32)))
        (=> (and (F__14 tmp_86 tmp_87 tmp_88) (distinct tmp_86 #b1)) (F__15 tmp_86 (bvadd tmp_87 #x0001) (bvadd tmp_88 #x00000001)))))
(assert (forall ((tmp_89 (_ BitVec 1)) (tmp_90 (_ BitVec 16)) (tmp_91 (_ BitVec 32)))
        (=> (and (F__14 tmp_89 tmp_90 tmp_91) (= tmp_89 #b1)) (F_ERR tmp_89 tmp_90 (bvadd tmp_91 #x00000001)))))
(assert (forall ((tmp_92 (_ BitVec 1)) (tmp_93 (_ BitVec 16)) (tmp_94 (_ BitVec 32)))
        (=> (and (F__15 tmp_92 tmp_93 tmp_94) (distinct tmp_92 #b1)) (F__16 tmp_92 (bvadd tmp_93 #x0001) (bvadd tmp_94 #x00000001)))))
(assert (forall ((tmp_95 (_ BitVec 1)) (tmp_96 (_ BitVec 16)) (tmp_97 (_ BitVec 32)))
        (=> (and (F__15 tmp_95 tmp_96 tmp_97) (= tmp_95 #b1)) (F_ERR tmp_95 tmp_96 (bvadd tmp_97 #x00000001)))))
(assert (forall ((tmp_98 (_ BitVec 1)) (tmp_99 (_ BitVec 16)) (tmp_100 (_ BitVec 32)))
        (=> (and (F__16 tmp_98 tmp_99 tmp_100) (distinct tmp_98 #b1)) (F__17 tmp_98 (bvadd tmp_99 #x0001) (bvadd tmp_100 #x00000001)))))
(assert (forall ((tmp_101 (_ BitVec 1)) (tmp_102 (_ BitVec 16)) (tmp_103 (_ BitVec 32)))
        (=> (and (F__16 tmp_101 tmp_102 tmp_103) (= tmp_101 #b1)) (F_ERR tmp_101 tmp_102 (bvadd tmp_103 #x00000001)))))
(assert (forall ((tmp_104 (_ BitVec 1)) (tmp_105 (_ BitVec 16)) (tmp_106 (_ BitVec 32)))
        (=> (and (F__17 tmp_104 tmp_105 tmp_106) (distinct tmp_104 #b1)) (F__18 tmp_104 (bvadd tmp_105 #x0001) (bvadd tmp_106 #x00000001)))))
(assert (forall ((tmp_107 (_ BitVec 1)) (tmp_108 (_ BitVec 16)) (tmp_109 (_ BitVec 32)))
        (=> (and (F__17 tmp_107 tmp_108 tmp_109) (= tmp_107 #b1)) (F_ERR tmp_107 tmp_108 (bvadd tmp_109 #x00000001)))))
(assert (forall ((tmp_110 (_ BitVec 1)) (tmp_111 (_ BitVec 16)) (tmp_112 (_ BitVec 32)))
        (=> (and (F__18 tmp_110 tmp_111 tmp_112) (distinct tmp_110 #b1)) (F__19 tmp_110 (bvadd tmp_111 #x0001) (bvadd tmp_112 #x00000001)))))
(assert (forall ((tmp_113 (_ BitVec 1)) (tmp_114 (_ BitVec 16)) (tmp_115 (_ BitVec 32)))
        (=> (and (F__18 tmp_113 tmp_114 tmp_115) (= tmp_113 #b1)) (F_ERR tmp_113 tmp_114 (bvadd tmp_115 #x00000001)))))
(assert (forall ((tmp_116 (_ BitVec 1)) (tmp_117 (_ BitVec 16)) (tmp_118 (_ BitVec 32)))
        (=> (and (F__19 tmp_116 tmp_117 tmp_118) (distinct tmp_116 #b1)) (F__20 tmp_116 (bvadd tmp_117 #x0001) (bvadd tmp_118 #x00000001)))))
(assert (forall ((tmp_119 (_ BitVec 1)) (tmp_120 (_ BitVec 16)) (tmp_121 (_ BitVec 32)))
        (=> (and (F__19 tmp_119 tmp_120 tmp_121) (= tmp_119 #b1)) (F_ERR tmp_119 tmp_120 (bvadd tmp_121 #x00000001)))))
(check-sat)
